90 117004
86 82 39 35 24 8 42 2 67 5 50 53 62 1 73 55 29 21 64 25 9 43 72 14 89 38 4 31 10 22 76 41 32 7 90 13 15 70 17 34 52 16 33 68 37 6 47 81 77 23 88 65 85 51 66 19 83 36 12 87 45 49 3 28 26 78 54 60 30 69 48 56 20 80 84 63 57 74 18 71 27 75 46 40 44 58 61 59 11 79 
